 vasp.5.3.5 31Mar14 (build Nov 29 2014 00:29:25) complex

 executed on             LinuxIFC date 2016.02.04  19:21:31

 INCAR:
 POTCAR:    PAW_PBE Cu 22Jun2005
 POTCAR:    PAW_PBE C 08Apr2002
 POTCAR:    PAW_PBE O 08Apr2002

 POTCAR:    PAW_PBE Cu 22Jun2005
   VRHFIN =Cu: d10 p1

   TITEL  = PAW_PBE Cu 22Jun2005
   POMASS =   63.546; ZVAL   =   11.000    mass and valenz
   ENMAX  =  295.446; ENMIN  =  221.585 eV

 POTCAR:    PAW_PBE C 08Apr2002
   VRHFIN =C: s2p2

   TITEL  = PAW_PBE C 08Apr2002
   POMASS =   12.011; ZVAL   =    4.000    mass and valenz
   ENMAX  =  400.000; ENMIN  =  300.000 eV

 POTCAR:    PAW_PBE O 08Apr2002
   VRHFIN =O: s2p4

   TITEL  = PAW_PBE O 08Apr2002
   POMASS =   16.000; ZVAL   =    6.000    mass and valenz
   ENMAX  =  400.000; ENMIN  =  300.000 eV

 Optimization of the real space projectors (new method)

 maximal supplied QI-value         = 16.25
 optimisation between [QCUT,QGAM] = [ 10.24, 20.48] = [ 29.35,117.42] Ry
 Optimized for a Real-space Cutoff    1.55 Angstroem

   l    n(q)    QCUT    max X(q) W(low)/X(q) W(high)/X(q)  e(spline)
   2      9    10.239     4.610    0.85E-04    0.29E-03    0.14E-06
   2      9    10.239     8.522    0.15E-03    0.50E-03    0.27E-06
   0     10    10.239    51.609    0.45E-04    0.99E-04    0.10E-06
   0     10    10.239    27.747    0.40E-04    0.93E-04    0.97E-07
   1      9    10.239    20.408    0.15E-03    0.78E-05    0.15E-06
   1      9    10.239    13.425    0.13E-03    0.71E-05    0.14E-06
 Optimization of the real space projectors (new method)

[...]

   l    n(q)    QCUT    max X(q) W(low)/X(q) W(high)/X(q)  e(spline)
   0      8    10.053   115.676    0.49E-03    0.72E-03    0.18E-06
   0      8    10.053    87.132    0.49E-03    0.71E-03    0.18E-06
   1      7    10.053     4.429    0.32E-03    0.31E-03    0.18E-06
   1      7    10.053     2.733    0.23E-03    0.19E-03    0.20E-06
 Optimization of the real space projectors (new method)

 maximal supplied QI-value         = 24.76
 optimisation between [QCUT,QGAM] = [ 10.15, 20.30] = [ 28.85,115.39] Ry
 Optimized for a Real-space Cutoff    1.38 Angstroem

   l    n(q)    QCUT    max X(q) W(low)/X(q) W(high)/X(q)  e(spline)
   0      8    10.150    20.381    0.22E-03    0.32E-03    0.29E-06
   0      8    10.150    15.268    0.23E-03    0.35E-03    0.30E-06
   1      8    10.150     5.964    0.46E-03    0.53E-03    0.21E-06
   1      8    10.150     5.382    0.38E-03    0.45E-03    0.19E-06
  PAW_PBE Cu 22Jun2005                  :
  PAW_PBE C 08Apr2002                   :
  PAW_PBE O 08Apr2002                   :

 POSCAR: Cu C O
  positions in cartesian coordinates
  velocities in cartesian coordinates
 exchange correlation table for  LEXCH =        8
   RHO(1)=    0.500       N(1)  =     2000
   RHO(2)=  100.500       N(2)  =     4000

 ion  position               nearest neighbor table
   1  0.000  0.000  0.000-  17 2.56  20 2.56  29 2.56  31 2.56   2 2.56   4 2.56   5 2.56  13 2.56

   2  0.000  0.250  0.000-  18 2.56  17 2.56  30 2.56  29 2.56   1 2.56   3 2.56   6 2.56  14 2.56

[...]

  17  0.125  0.125  0.060-   1 2.56   2 2.56   5 2.56   6 2.56  18 2.56  20 2.56  21 2.56  29 2.56
                            34 2.58  37 2.58  33 2.58  38 2.61
  18  0.125  0.375  0.060-   2 2.56   3 2.56   6 2.56   7 2.56  17 2.56  19 2.56  22 2.56  30 2.56
                            35 2.58  34 2.58  39 2.59  38 2.59
  19  0.125  0.625  0.060-   3 2.56   4 2.56   7 2.56   8 2.56  18 2.56  20 2.56  23 2.56  32 2.56
                            35 2.58  40 2.58  36 2.58  39 2.61
  20  0.125  0.875  0.060-   4 2.56   1 2.56   8 2.56   5 2.56  17 2.56  19 2.56  24 2.56  31 2.56
                            37 2.58  40 2.58  36 2.58  33 2.58
  21  0.375  0.125  0.060-   5 2.56   6 2.56   9 2.56  10 2.56  17 2.56  22 2.56  24 2.56  25 2.56
                            41 2.58  37 2.58  42 2.59  38 2.59
  22  0.375  0.375  0.060-   6 2.56   7 2.56  10 2.56  11 2.56  18 2.56  21 2.56  23 2.56  26 2.56
                            43 2.58  42 2.58  39 2.58  38 2.58
  23  0.375  0.625  0.060-   7 2.56   8 2.56  11 2.56  12 2.56  19 2.56  22 2.56  24 2.56  27 2.56
                            44 2.58  40 2.58  43 2.59  39 2.59
  24  0.375  0.875  0.060-   8 2.56   5 2.56  12 2.56   9 2.56  20 2.56  21 2.56  23 2.56  28 2.56
                            41 2.58  44 2.58  37 2.58  40 2.58
  25  0.625  0.125  0.060-   9 2.56  10 2.56  13 2.56  14 2.56  21 2.56  26 2.56  28 2.56  29 2.56
                            41 2.58  46 2.58  45 2.58  42 2.61
  26  0.625  0.375  0.060-  10 2.56  11 2.56  14 2.56  15 2.56  22 2.56  25 2.56  27 2.56  30 2.56
                            47 2.58  46 2.58  43 2.59  42 2.59
  27  0.625  0.625  0.060-  11 2.56  12 2.56  15 2.56  16 2.56  23 2.56  26 2.56  28 2.56  32 2.56
                            44 2.58  47 2.58  48 2.58  43 2.61
  28  0.625  0.875  0.060-  12 2.56   9 2.56  16 2.56  13 2.56  24 2.56  25 2.56  27 2.56  31 2.56
                            41 2.58  44 2.58  48 2.58  45 2.58
  29  0.875  0.125  0.060-  13 2.56   1 2.56  14 2.56   2 2.56  17 2.56  25 2.56  30 2.56  31 2.56
                            34 2.58  46 2.58  45 2.58  33 2.58
  30  0.875  0.375  0.060-  14 2.56   2 2.56  15 2.56   3 2.56  18 2.56  26 2.56  29 2.56  32 2.56
                            35 2.58  47 2.58  34 2.58  46 2.58
  31  0.875  0.875  0.060-  16 2.56  13 2.56   4 2.56   1 2.56  20 2.56  28 2.56  29 2.56  32 2.56
                            48 2.58  45 2.58  36 2.58  33 2.58
  32  0.875  0.625  0.060-  15 2.56   3 2.56  16 2.56   4 2.56  19 2.56  27 2.56  30 2.56  31 2.56
                            35 2.58  47 2.58  48 2.58  36 2.58
  33  1.000  1.000  0.122-  49 2.53  63 2.54  61 2.54  52 2.54  36 2.55  45 2.55  37 2.56  34 2.56
                            31 2.58  29 2.58  20 2.58  17 2.58
  34  0.000  0.250  0.122-  50 2.53  49 2.53  61 2.54  62 2.54  33 2.56  35 2.56  46 2.56  38 2.57
                            17 2.58  18 2.58  29 2.58  30 2.58
  35  0.000  0.500  0.122-  50 2.53  51 2.53  64 2.54  62 2.54  36 2.56  34 2.56  47 2.56  39 2.57
                            19 2.58  18 2.58  32 2.58  30 2.58
  36  1.000  0.750  0.122-  51 2.53  63 2.54  64 2.54  52 2.54  48 2.55  33 2.55  40 2.56  35 2.56
                            31 2.58  20 2.58  32 2.58  19 2.58
  37  0.250  0.000  0.122-  53 2.53  49 2.53  52 2.54  56 2.54  33 2.56  41 2.56  40 2.56  38 2.57
                            17 2.58  21 2.58  20 2.58  24 2.58
  38  0.251  0.251  0.122-  39 2.53  42 2.53  49 2.54  50 2.54  53 2.54  37 2.57  34 2.57  22 2.58
                            18 2.59  21 2.59  54 2.60  17 2.61
  39  0.251  0.499  0.122-  38 2.53  43 2.53  51 2.54  55 2.54  50 2.54  40 2.57  35 2.57  22 2.58
                            23 2.59  18 2.59  54 2.60  19 2.61
  40  0.250  0.750  0.122-  55 2.53  51 2.53  52 2.54  56 2.54  36 2.56  44 2.56  37 2.56  39 2.57
                            19 2.58  23 2.58  20 2.58  24 2.58
  41  0.500  0.000  0.122-  53 2.53  57 2.53  60 2.54  56 2.54  45 2.56  37 2.56  44 2.56  42 2.57
                            25 2.58  21 2.58  28 2.58  24 2.58
  42  0.499  0.251  0.122-  38 2.53  43 2.53  57 2.54  58 2.54  53 2.54  46 2.57  41 2.57  22 2.58
                            26 2.59  21 2.59  54 2.60  25 2.61
  43  0.499  0.499  0.122-  39 2.53  42 2.53  59 2.54  58 2.54  55 2.54  47 2.57  44 2.57  22 2.58
                            26 2.59  23 2.59  54 2.60  27 2.61
  44  0.500  0.750  0.122-  55 2.53  59 2.53  60 2.54  56 2.54  48 2.56  40 2.56  41 2.56  43 2.57
                            27 2.58  23 2.58  28 2.58  24 2.58
  45  0.750  1.000  0.122-  57 2.53  63 2.54  60 2.54  61 2.54  48 2.55  33 2.55  46 2.56  41 2.56
                            31 2.58  29 2.58  28 2.58  25 2.58
  46  0.750  0.250  0.122-  58 2.53  57 2.53  61 2.54  62 2.54  45 2.56  47 2.56  34 2.56  42 2.57
                            25 2.58  26 2.58  29 2.58  30 2.58
  47  0.750  0.500  0.122-  58 2.53  59 2.53  64 2.54  62 2.54  48 2.56  46 2.56  35 2.56  43 2.57
                            27 2.58  26 2.58  32 2.58  30 2.58
  48  0.750  0.750  0.122-  59 2.53  63 2.54  60 2.54  64 2.54  36 2.55  45 2.55  44 2.56  47 2.56
                            31 2.58  28 2.58  32 2.58  27 2.58
  49  0.125  0.125  0.181-  34 2.53  37 2.53  33 2.53  38 2.54  52 2.56  61 2.56  53 2.56  50 2.56

[...]

  54  0.375  0.375  0.185-  65 1.85  53 2.59  50 2.59  58 2.59  55 2.59  38 2.60  42 2.60  39 2.60
                            43 2.60
  55  0.375  0.628  0.181-  56 2.53  40 2.53  44 2.53  39 2.54  43 2.54  51 2.56  59 2.56  54 2.59

[...]

  65  0.375  0.375  0.247-  66 1.16  54 1.85
  66  0.376  0.376  0.286-  65 1.16

IMPORTANT INFORMATION: All symmetrisations will be switched off!
NOSYMM'0;95;c: (Re-)initialisation of all symmetry stuff for point group C_1.

 KPOINTS: CO@Cu(100)

Automatic generation of k-mesh.
Space group operators:
 irot       det(A)        alpha          n_x          n_y          n_z        tau_x        tau_y        tau_z
    1     1.000000     0.000000     1.000000     0.000000     0.000000     0.000000     0.000000     0.000000

 Subroutine IBZKPT returns following result:

 Found     10 irreducible k-points:

 Following reciprocal coordinates:
            Coordinates               Weight
  0.000000  0.000000  0.000000      1.000000
  0.250000  0.000000  0.000000      2.000000
  0.500000  0.000000  0.000000      1.000000
  0.000000  0.250000  0.000000      2.000000
  0.250000  0.250000  0.000000      2.000000
  0.500000  0.250000  0.000000      2.000000
 -0.250000  0.250000  0.000000      2.000000
  0.000000  0.500000  0.000000      1.000000
  0.250000  0.500000  0.000000      2.000000
  0.500000  0.500000  0.000000      1.000000

 Following cartesian coordinates:
            Coordinates               Weight
  0.000000  0.000000  0.000000      1.000000
  0.024452  0.000000  0.000000      2.000000
  0.048905  0.000000  0.000000      1.000000
  0.000000  0.024452  0.000000      2.000000
  0.024452  0.024452  0.000000      2.000000
  0.048905  0.024452  0.000000      2.000000
 -0.024452  0.024452  0.000000      2.000000
  0.000000  0.048905  0.000000      1.000000
  0.024452  0.048905  0.000000      2.000000
  0.048905  0.048905  0.000000      1.000000

 I would recommend the setting:
   dimension x,y,z NGX =    50 NGY =   50 NGZ =  147
 SYSTEM =  COCu
 POSCAR =  Cu C O

 Startparameter for this run:
   NWRITE =      2    write-flag & timer
   PREC   = normal    normal or accurate (medium, high low for compatibility)
   ISTART =      0    job   : 0-new  1-cont  2-samecut
   ICHARG =      2    charge: 1-file 2-atom 10-const
   ISPIN  =      1    spin polarized calculation?
   LNONCOLLINEAR =      F non collinear calculations
   LSORBIT =      F    spin-orbit coupling
   INIWAV =      1    electr: 0-lowe 1-rand  2-diag
   LASPH  =      F    aspherical Exc in radial PAW
   METAGGA=      F    non-selfconsistent MetaGGA calc.

 Electronic Relaxation 1
   ENCUT  =  400.0 eV  29.40 Ry    5.42 a.u.  16.67 16.67 48.92*2*pi/ulx,y,z
   ENINI  =  400.0     initial cutoff
   ENAUG  =  644.9 eV  augmentation charge cutoff
[...]
    436       4.4463      0.00000
    437       4.5198      0.00000
    438       4.5203      0.00000
    439       4.5204      0.00000
    440       4.5943      0.00000

 soft charge-density along one line, spin component           1
         0         1         2         3         4         5         6         7         8         9
 total charge-density along one line

------------------------ aborting loop because EDIFF is reached ----------------------------------------

  FORCE on cell =-STRESS in cart. coord.  units (eV):
  Direction    XX          YY          ZZ          XY          YZ          ZX
  Alpha Z   978.75035   978.75035   978.75035
  Ewald  608512.77645608512.77645************     0.00378     1.43332     1.43332
  Hartree630739.44620630739.44619************     0.00144     0.58800     0.58802
  E(xc)   -4152.98792 -4152.98792 -4159.01432     0.00001     0.00421     0.00421
  Local  ************************************    -0.00484    -1.91343    -1.91346
  n-local -1437.42660 -1437.42661 -1457.42138    -0.00194    -0.02015    -0.02010
  augment  6051.05956  6051.05956  6071.55842     0.00017    -0.01194    -0.01199
  Kinetic  5924.27828  5924.27828  5932.95215    -0.00036    -0.08177    -0.08176
  Fock        0.00000     0.00000     0.00000     0.00000     0.00000     0.00000
  Total     -21.52086   -21.52086    -7.69975    -0.00173    -0.00176    -0.00177
  in kB     -10.99530   -10.99531    -3.93391    -0.00089    -0.00090    -0.00090

 VOLUME and BASIS-vectors are now :
  energy-cutoff  :      400.00
  volume of cell :     3135.91
      direct lattice vectors                 reciprocal lattice vectors
    10.224000000  0.000000000  0.000000000     0.097809077  0.000000000  0.000000000
     0.000000000 10.224000000  0.000000000     0.000000000  0.097809077  0.000000000
     0.000000000  0.000000000 30.000000000     0.000000000  0.000000000  0.033333333

  length of vectors
    10.224000000 10.224000000 30.000000000     0.097809077  0.097809077  0.033333333

 FORCES acting on ions
    electron-ion (+dipol)            ewald-force                    non-local-force                 convergence-correction
   0.196E+00 0.196E+00 0.379E+04   -.340E+00 -.340E+00 -.379E+04   0.120E+00 0.120E+00 -.360E+01   -.373E-04 -.183E-04 0.434E-03
   0.184E+00 0.455E+00 0.379E+04   -.152E+00 -.447E+00 -.379E+04   -.211E-01 -.768E-03 -.370E+01   -.174E-04 -.856E-04 0.367E-03
   0.187E+00 -.440E+00 0.379E+04   -.155E+00 0.433E+00 -.379E+04   -.210E-01 -.328E-04 -.370E+01   -.920E-05 0.529E-04 0.353E-03
   0.198E+00 -.208E+00 0.379E+04   -.341E+00 0.351E+00 -.379E+04   0.119E+00 -.119E+00 -.361E+01   -.255E-04 0.512E-04 0.421E-03
   0.455E+00 0.184E+00 0.379E+04   -.447E+00 -.152E+00 -.379E+04   -.772E-03 -.211E-01 -.370E+01   -.663E-04 -.138E-04 0.379E-03
   0.356E+00 0.356E+00 0.379E+04   -.446E+00 -.446E+00 -.379E+04   0.862E-01 0.862E-01 -.335E+01   -.911E-04 -.964E-04 0.359E-03
   0.358E+00 -.338E+00 0.379E+04   -.448E+00 0.427E+00 -.379E+04   0.865E-01 -.862E-01 -.335E+01   -.881E-04 0.776E-04 0.338E-03
   0.456E+00 -.200E+00 0.379E+04   -.449E+00 0.167E+00 -.379E+04   -.737E-03 0.211E-01 -.370E+01   -.600E-04 0.329E-04 0.358E-03
   -.440E+00 0.187E+00 0.379E+04   0.433E+00 -.155E+00 -.379E+04   -.314E-04 -.210E-01 -.370E+01   0.734E-04 -.174E-04 0.385E-03
   -.338E+00 0.358E+00 0.379E+04   0.427E+00 -.448E+00 -.379E+04   -.862E-01 0.865E-01 -.335E+01   0.880E-04 -.106E-03 0.360E-03
   -.340E+00 -.340E+00 0.379E+04   0.429E+00 0.429E+00 -.379E+04   -.865E-01 -.865E-01 -.335E+01   0.800E-04 0.818E-04 0.337E-03
   -.441E+00 -.203E+00 0.379E+04   0.435E+00 0.170E+00 -.379E+04   -.636E-04 0.210E-01 -.370E+01   0.630E-04 0.422E-04 0.361E-03
   -.208E+00 0.198E+00 0.379E+04   0.351E+00 -.341E+00 -.379E+04   -.119E+00 0.119E+00 -.361E+01   0.298E-04 -.207E-04 0.437E-03
   -.200E+00 0.456E+00 0.379E+04   0.167E+00 -.449E+00 -.379E+04   0.211E-01 -.733E-03 -.370E+01   0.216E-04 -.926E-04 0.366E-03
   -.203E+00 -.441E+00 0.379E+04   0.170E+00 0.435E+00 -.379E+04   0.210E-01 -.652E-04 -.370E+01   0.170E-04 0.563E-04 0.350E-03
   -.210E+00 -.210E+00 0.379E+04   0.352E+00 0.352E+00 -.379E+04   -.118E+00 -.118E+00 -.361E+01   0.218E-04 0.570E-04 0.422E-03
   0.779E-01 0.779E-01 0.133E+04   -.364E-01 -.364E-01 -.133E+04   -.101E-01 -.101E-01 -.541E+00   -.158E-04 -.292E-04 0.494E-03
   0.255E+00 0.407E-01 0.133E+04   -.129E+00 -.402E-01 -.133E+04   -.103E+00 -.456E-03 -.683E+00   -.237E-04 -.232E-04 0.456E-03
   0.105E+00 -.100E+00 0.133E+04   -.632E-01 0.578E-01 -.133E+04   -.104E-01 0.111E-01 -.542E+00   -.118E-04 0.157E-04 0.477E-03
   0.203E+01 -.259E-01 0.133E+04   -.212E+01 0.266E-01 -.133E+04   0.102E+00 -.468E-03 -.514E+00   -.410E-04 0.351E-04 0.353E-03
   0.407E-01 0.255E+00 0.133E+04   -.402E-01 -.129E+00 -.133E+04   -.461E-03 -.103E+00 -.683E+00   0.101E-04 -.483E-04 0.483E-03
   0.484E-01 0.485E-01 0.134E+04   -.482E-01 -.482E-01 -.134E+04   -.152E-03 -.148E-03 -.301E+00   -.484E-05 -.266E-04 0.469E-03
   0.407E-01 -.287E+00 0.133E+04   -.403E-01 0.161E+00 -.133E+04   -.447E-03 0.104E+00 -.683E+00   0.244E-06 0.367E-04 0.448E-03
   0.195E-01 -.277E-01 0.133E+04   -.188E-01 0.283E-01 -.133E+04   -.641E-03 -.391E-03 -.599E+00   0.123E-04 0.381E-04 0.411E-03
   -.100E+00 0.105E+00 0.133E+04   0.578E-01 -.632E-01 -.133E+04   0.111E-01 -.104E-01 -.542E+00   0.960E-05 -.434E-04 0.502E-03
   -.287E+00 0.408E-01 0.133E+04   0.161E+00 -.403E-01 -.133E+04   0.104E+00 -.444E-03 -.683E+00   0.226E-04 -.291E-04 0.463E-03
   -.127E+00 -.127E+00 0.133E+04   0.846E-01 0.846E-01 -.133E+04   0.115E-01 0.115E-01 -.543E+00   0.119E-04 0.315E-04 0.485E-03
   -.202E+01 -.259E-01 0.133E+04   0.211E+01 0.266E-01 -.133E+04   -.101E+00 -.473E-03 -.514E+00   0.351E-04 0.412E-04 0.360E-03
   -.259E-01 0.203E+01 0.133E+04   0.266E-01 -.212E+01 -.133E+04   -.464E-03 0.102E+00 -.514E+00   -.386E-05 -.650E-04 0.351E-03
   -.277E-01 0.196E-01 0.133E+04   0.283E-01 -.188E-01 -.133E+04   -.387E-03 -.637E-03 -.599E+00   0.477E-05 -.280E-04 0.397E-03
   -.296E-01 -.296E-01 0.132E+04   0.298E-01 0.298E-01 -.132E+04   0.133E-03 0.129E-03 -.771E+00   -.709E-05 0.399E-04 0.280E-03
   -.259E-01 -.202E+01 0.133E+04   0.266E-01 0.211E+01 -.133E+04   -.469E-03 -.101E+00 -.514E+00   0.627E-06 0.528E-04 0.345E-03
   0.496E+01 0.496E+01 -.122E+04   -.492E+01 -.492E+01 0.122E+04   -.363E-01 -.363E-01 0.295E+00   0.337E-04 0.466E-04 0.208E-04
   0.695E+01 0.646E+01 -.120E+04   -.693E+01 -.655E+01 0.120E+04   -.292E-01 0.972E-01 0.460E+00   0.126E-04 -.132E-03 0.439E-04
   0.698E+01 -.639E+01 -.120E+04   -.696E+01 0.649E+01 0.120E+04   -.289E-01 -.973E-01 0.460E+00   0.141E-04 0.885E-04 0.492E-04
   0.497E+01 -.502E+01 -.122E+04   -.492E+01 0.498E+01 0.122E+04   -.360E-01 0.364E-01 0.296E+00   0.330E-04 -.284E-05 0.282E-04
   0.646E+01 0.695E+01 -.120E+04   -.655E+01 -.693E+01 0.120E+04   0.971E-01 -.292E-01 0.460E+00   -.866E-04 0.232E-04 0.425E-04
   0.944E+01 0.944E+01 -.120E+04   -.921E+01 -.921E+01 0.120E+04   -.248E+00 -.248E+00 -.197E+00   0.403E-04 -.162E-05 0.555E-04
   0.942E+01 -.931E+01 -.120E+04   -.919E+01 0.908E+01 0.120E+04   -.248E+00 0.248E+00 -.196E+00   0.279E-04 -.491E-04 0.598E-04
   0.648E+01 -.706E+01 -.120E+04   -.657E+01 0.704E+01 0.120E+04   0.971E-01 0.291E-01 0.461E+00   -.977E-04 0.281E-04 0.480E-04
   -.639E+01 0.698E+01 -.120E+04   0.649E+01 -.696E+01 0.120E+04   -.973E-01 -.289E-01 0.460E+00   0.102E-03 0.228E-04 0.409E-04
   -.931E+01 0.942E+01 -.120E+04   0.908E+01 -.919E+01 0.120E+04   0.248E+00 -.248E+00 -.196E+00   -.337E-04 -.130E-04 0.624E-04
   -.930E+01 -.930E+01 -.120E+04   0.906E+01 0.906E+01 0.120E+04   0.247E+00 0.247E+00 -.195E+00   -.286E-04 -.460E-04 0.670E-04
   -.641E+01 -.709E+01 -.120E+04   0.651E+01 0.707E+01 0.120E+04   -.976E-01 0.297E-01 0.461E+00   0.109E-03 0.361E-04 0.477E-04
   -.502E+01 0.497E+01 -.122E+04   0.498E+01 -.492E+01 0.122E+04   0.364E-01 -.360E-01 0.296E+00   -.494E-04 0.450E-04 0.201E-04
   -.706E+01 0.648E+01 -.120E+04   0.704E+01 -.657E+01 0.120E+04   0.291E-01 0.971E-01 0.461E+00   -.180E-04 -.139E-03 0.489E-04
   -.709E+01 -.641E+01 -.120E+04   0.707E+01 0.651E+01 0.120E+04   0.297E-01 -.976E-01 0.461E+00   -.148E-04 0.929E-04 0.559E-04
   -.503E+01 -.503E+01 -.122E+04   0.499E+01 0.499E+01 0.122E+04   0.365E-01 0.364E-01 0.296E+00   -.446E-04 0.200E-05 0.283E-04
   0.318E+02 0.318E+02 -.367E+04   -.318E+02 -.318E+02 0.367E+04   0.188E-01 0.188E-01 0.358E+01   -.192E-03 -.210E-03 -.483E-03
   0.565E+02 0.136E+00 -.364E+04   -.570E+02 -.138E+00 0.364E+04   0.518E+00 0.163E-02 0.414E+01   -.245E-04 -.184E-04 -.387E-03
   0.319E+02 -.318E+02 -.367E+04   -.320E+02 0.319E+02 0.367E+04   0.184E-01 -.199E-01 0.358E+01   -.198E-03 0.204E-03 -.457E-03
   0.182E+02 -.991E-01 -.370E+04   -.182E+02 0.998E-01 0.370E+04   0.120E-01 -.489E-03 0.369E+01   -.487E-05 0.249E-04 -.414E-03
   0.136E+00 0.565E+02 -.364E+04   -.138E+00 -.570E+02 0.364E+04   0.163E-02 0.518E+00 0.414E+01   0.112E-04 -.393E-04 -.404E-03
   0.659E+00 0.659E+00 -.354E+04   -.670E+00 -.670E+00 0.353E+04   0.102E-01 0.102E-01 0.159E+01   0.551E-05 -.276E-04 -.409E-03
   0.138E+00 -.567E+02 -.364E+04   -.139E+00 0.572E+02 0.364E+04   0.193E-02 -.532E+00 0.414E+01   0.620E-05 0.371E-04 -.370E-03
   0.604E-01 -.170E+00 -.369E+04   -.592E-01 0.172E+00 0.368E+04   -.108E-02 -.202E-02 0.329E+01   0.962E-05 0.333E-04 -.323E-03
   -.318E+02 0.319E+02 -.367E+04   0.319E+02 -.320E+02 0.367E+04   -.199E-01 0.184E-01 0.358E+01   0.187E-03 -.211E-03 -.489E-03
   -.567E+02 0.138E+00 -.364E+04   0.572E+02 -.139E+00 0.364E+04   -.532E+00 0.193E-02 0.414E+01   0.226E-04 -.232E-04 -.382E-03
   -.320E+02 -.320E+02 -.367E+04   0.320E+02 0.320E+02 0.367E+04   -.195E-01 -.195E-01 0.358E+01   0.196E-03 0.207E-03 -.459E-03
   -.182E+02 -.996E-01 -.370E+04   0.182E+02 0.100E+00 0.370E+04   -.115E-01 -.546E-03 0.369E+01   0.114E-05 0.281E-04 -.423E-03
   -.991E-01 0.182E+02 -.370E+04   0.998E-01 -.182E+02 0.370E+04   -.487E-03 0.120E-01 0.369E+01   -.703E-05 -.184E-04 -.421E-03
   -.170E+00 0.604E-01 -.369E+04   0.172E+00 -.592E-01 0.368E+04   -.202E-02 -.108E-02 0.329E+01   -.403E-05 -.227E-04 -.308E-03
   -.529E-01 -.529E-01 -.371E+04   0.526E-01 0.526E-01 0.371E+04   0.213E-03 0.210E-03 0.382E+01   -.567E-05 0.261E-04 -.363E-03
   -.995E-01 -.182E+02 -.370E+04   0.100E+00 0.182E+02 0.370E+04   -.543E-03 -.115E-01 0.369E+01   -.415E-05 0.146E-04 -.399E-03
   0.419E+00 0.419E+00 -.148E+04   -.483E+00 -.483E+00 0.146E+04   0.620E-01 0.620E-01 0.195E+02   0.135E-05 -.376E-05 0.393E-04
   -.617E+00 -.617E+00 -.244E+04   0.792E+00 0.792E+00 0.250E+04   -.170E+00 -.170E+00 -.602E+02   0.265E-05 -.189E-05 0.258E-03
   0.117E+00 0.117E+00 0.457E+02   0.344E-13 0.152E-12 -.500E-11   -.114E+00 -.114E+00 -.456E+02   0.220E-05 -.151E-05 0.733E-02

 POSITION                                       TOTAL-FORCE (eV/Angst)
      0.00000      0.00000      0.00000        -0.024181     -0.024181      0.091022
      0.00000      2.55600      0.00000         0.011349      0.006636      0.091831
      0.00000      5.11200      0.00000         0.011375     -0.006724      0.091892
      0.00000      7.66800      0.00000        -0.024162      0.024021      0.090960
      2.55600      0.00000      0.00000         0.006637      0.011349      0.091832
      2.55600      2.55600      0.00000        -0.003511     -0.003512      0.097311
      2.55600      5.11200      0.00000        -0.003534      0.003454      0.097848
      2.55600      7.66800      0.00000         0.006625     -0.011546      0.091270
      5.11200      0.00000      0.00000        -0.006723      0.011375      0.091894
      5.11200      2.55600      0.00000         0.003454     -0.003535      0.097849
      5.11200      5.11200      0.00000         0.003477      0.003478      0.097879
      5.11200      7.66800      0.00000        -0.006711     -0.011573      0.091842
      7.66800      0.00000      0.00000         0.024021     -0.024162      0.090960
      7.66800      2.55600      0.00000        -0.011546      0.006624      0.091270
      7.66800      5.11200      0.00000        -0.011574     -0.006711      0.091841
      7.66800      7.66800      0.00000         0.024001      0.024002      0.090391
      1.27799      1.27799      1.80735         0.031322      0.031321     -0.072192
      1.27799      3.83399      1.80735         0.022899     -0.000042     -0.096343
      1.27799      6.38999      1.80735         0.031122     -0.031480     -0.072558
      1.27799      8.94599      1.80735         0.012073      0.000152     -0.090244
      3.83399      1.27799      1.80735        -0.000041      0.022898     -0.096341
      3.83399      3.83399      1.80735         0.000044      0.000044     -0.095127
      3.83399      6.38999      1.80735        -0.000033     -0.023067     -0.096563
      3.83399      8.94599      1.80735         0.000051      0.000146     -0.086223
      6.38999      1.27799      1.80735        -0.031481      0.031121     -0.072557
      6.38999      3.83399      1.80735        -0.023068     -0.000034     -0.096563
      6.38999      6.38999      1.80735        -0.031298     -0.031297     -0.072906
      6.38999      8.94599      1.80735        -0.012565      0.000152     -0.090244
      8.94599      1.27799      1.80735         0.000150      0.012072     -0.090245
      8.94599      3.83399      1.80735         0.000144      0.000050     -0.086223
      8.94599      8.94599      1.80735         0.000341      0.000342     -0.114698
      8.94599      6.38999      1.80735         0.000151     -0.012564     -0.090245
     10.22238     10.22238      3.65135         0.005279      0.005279     -0.002767
      0.00296      2.55471      3.64826        -0.005500      0.004205     -0.007762
      0.00296      5.11326      3.64826        -0.005099     -0.004133     -0.007527
     10.22236      7.66963      3.65131         0.005408     -0.005727     -0.002354
      2.55471      0.00296      3.64826         0.004207     -0.005500     -0.007763
      2.57004      2.57004      3.66802        -0.012710     -0.012712      0.018559
      2.56997      5.09805      3.66785        -0.012907      0.013091      0.019188
      2.55472      7.66504      3.64828         0.004170      0.005051     -0.008809
      5.11326      0.00296      3.64826        -0.004133     -0.005099     -0.007528
      5.09805      2.56997      3.66785         0.013092     -0.012909      0.019187
      5.09811      5.09811      3.66768         0.012870      0.012869      0.018790
      5.11326      7.66504      3.64828        -0.004391      0.005459     -0.007794
      7.66963     10.22236      3.65131        -0.005729      0.005408     -0.002354
      7.66504      2.55472      3.64828         0.005050      0.004169     -0.008810
      7.66504      5.11326      3.64828         0.005458     -0.004392     -0.007793
      7.66965      7.66965      3.65127        -0.005450     -0.005449     -0.003347
      1.27762      1.27762      5.42555        -0.004037     -0.004037     -0.010311
      1.25016      3.83399      5.43735        -0.006453      0.000012     -0.010862
      1.27756      6.39043      5.42548        -0.004173      0.003706     -0.010341
      1.28283      8.94601      5.42996        -0.003575      0.000168     -0.007357
      3.83399      1.25016      5.43735         0.000013     -0.006454     -0.010863
      3.83389      3.83389      5.56194        -0.000572     -0.000573      0.023192
      3.83399      6.41787      5.43736         0.000213      0.006228     -0.011011
      3.83399      8.94599      5.43033         0.000086      0.000174     -0.004327
      6.39043      1.27756      5.42548         0.003706     -0.004173     -0.010342
      6.41787      3.83399      5.43736         0.006228      0.000212     -0.011011
      6.39049      6.39049      5.42542         0.003875      0.003875     -0.010394
      6.38515      8.94601      5.42993         0.003316      0.000132     -0.007260
      8.94601      1.28283      5.42996         0.000168     -0.003575     -0.007357
      8.94599      3.83399      5.43033         0.000174      0.000085     -0.004326
      8.94599      8.94599      5.43558        -0.000120     -0.000120     -0.004969
      8.94601      6.38515      5.42993         0.000132      0.003317     -0.007259
      3.83911      3.83911      7.40921        -0.001528     -0.001527     -0.005930
      3.84243      3.84243      8.56632         0.004129      0.004129      0.040990
    total drift:                                0.003130      0.003130      0.027586

  FREE ENERGIE OF THE ION-ELECTRON SYSTEM (eV)
  free  energy   TOTEN  =      -235.18243822 eV

  energy  without entropy=     -235.16381001  energy(sigma->0) =     -235.17622882

 writing wavefunctions